812 545 348 1085 747 650 78 52 0 149
425 884 853 203 0 105 544 621 437 312
530 388 270 615 175 59 334 407 1137 649
437 28 599 530 959 228 779 687 725 834
994 566 0 649 1097 203 256 1042 749 391
660 115 768 1009 267 863 1180 1085 828 809
379 768 709 599 426 0 492 1180 1087 72
907 1034 1140 826 578 96 688 450 419 165
155 0 233 327 1064 353 388 1207 52 270
1071 641 470 151 55 386 178 922 572 728
1198 1167 564 867 151 1055 1149 253 974 468
1140 407 686 727 1019 305 826 521 118 917
865 499 156 451 328 1131 621 790 545 1014
0 1022 803 258 865 527 959 285 208 1062
80 1126 884 954 517 934 742 1024 641 0
613 944 334 0 790 470 1022 725 865 1142
1038 166 1071 419 598 745 902 206 361 1164
233 122 206 499 650 642 477 166 295 604
755 1087 98 277 454 1158 936 967 1055 517
295 197 974 666 1193 555 1082 852 944 819
